NAME : rnd88_20.tsp
TYPE : TSP
DIMENSION : 20
EDGE_WEIGHT_TYPE : EUC_2D
NODE_COORD_SECTION
0 154 520
1 713 831
2 593 710
3 718 68
4 134 950
5 516 339
6 734 678
7 62 122
8 943 918
9 674 994
10 962 156
11 638 88
12 351 904
13 770 156
14 807 79
15 30 212
16 801 524
17 588 844
18 635 142
19 38 705
